c File: flat175_3_0.col
c
c SOURCE: Joseph Culberson (joe@cs.ualberta.ca)
c DESCRIPTION: Quasi-random coloring problem
c              generated with flatness = 0
c                             probability = 0.041
c                             known coloring = 3
c                             random seed = 1048
c              Creation Date:  Wed Feb 24 10:55:12 1999
c Maximum degree = 8 Minimum degree = 1
c COLOR VERIFICATION: Using the permuted order
c under simple greedy yields the specified
c coloring number
c Color = 3 specified partitions = 3
c p edge 175 417
c cnf created by edge2cnf
p cnf 525 1951
-1 -2 0
-1 -3 0
-2 -3 0
1 2 3 0
-4 -5 0
-4 -6 0
-5 -6 0
4 5 6 0
-7 -8 0
-7 -9 0
-8 -9 0
7 8 9 0
-10 -11 0
-10 -12 0
-11 -12 0
10 11 12 0
-13 -14 0
-13 -15 0
-14 -15 0
13 14 15 0
-16 -17 0
-16 -18 0
-17 -18 0
16 17 18 0
-19 -20 0
-19 -21 0
-20 -21 0
19 20 21 0
-22 -23 0
-22 -24 0
-23 -24 0
22 23 24 0
-25 -26 0
-25 -27 0
-26 -27 0
25 26 27 0
-28 -29 0
-28 -30 0
-29 -30 0
28 29 30 0
-31 -32 0
-31 -33 0
-32 -33 0
31 32 33 0
-34 -35 0
-34 -36 0
-35 -36 0
34 35 36 0
-37 -38 0
-37 -39 0
-38 -39 0
37 38 39 0
-40 -41 0
-40 -42 0
-41 -42 0
40 41 42 0
-43 -44 0
-43 -45 0
-44 -45 0
43 44 45 0
-46 -47 0
-46 -48 0
-47 -48 0
46 47 48 0
-49 -50 0
-49 -51 0
-50 -51 0
49 50 51 0
-52 -53 0
-52 -54 0
-53 -54 0
52 53 54 0
-55 -56 0
-55 -57 0
-56 -57 0
55 56 57 0
-58 -59 0
-58 -60 0
-59 -60 0
58 59 60 0
-61 -62 0
-61 -63 0
-62 -63 0
61 62 63 0
-64 -65 0
-64 -66 0
-65 -66 0
64 65 66 0
-67 -68 0
-67 -69 0
-68 -69 0
67 68 69 0
-70 -71 0
-70 -72 0
-71 -72 0
70 71 72 0
-73 -74 0
-73 -75 0
-74 -75 0
73 74 75 0
-76 -77 0
-76 -78 0
-77 -78 0
76 77 78 0
-79 -80 0
-79 -81 0
-80 -81 0
79 80 81 0
-82 -83 0
-82 -84 0
-83 -84 0
82 83 84 0
-85 -86 0
-85 -87 0
-86 -87 0
85 86 87 0
-88 -89 0
-88 -90 0
-89 -90 0
88 89 90 0
-91 -92 0
-91 -93 0
-92 -93 0
91 92 93 0
-94 -95 0
-94 -96 0
-95 -96 0
94 95 96 0
-97 -98 0
-97 -99 0
-98 -99 0
97 98 99 0
-100 -101 0
-100 -102 0
-101 -102 0
100 101 102 0
-103 -104 0
-103 -105 0
-104 -105 0
103 104 105 0
-106 -107 0
-106 -108 0
-107 -108 0
106 107 108 0
-109 -110 0
-109 -111 0
-110 -111 0
109 110 111 0
-112 -113 0
-112 -114 0
-113 -114 0
112 113 114 0
-115 -116 0
-115 -117 0
-116 -117 0
115 116 117 0
-118 -119 0
-118 -120 0
-119 -120 0
118 119 120 0
-121 -122 0
-121 -123 0
-122 -123 0
121 122 123 0
-124 -125 0
-124 -126 0
-125 -126 0
124 125 126 0
-127 -128 0
-127 -129 0
-128 -129 0
127 128 129 0
-130 -131 0
-130 -132 0
-131 -132 0
130 131 132 0
-133 -134 0
-133 -135 0
-134 -135 0
133 134 135 0
-136 -137 0
-136 -138 0
-137 -138 0
136 137 138 0
-139 -140 0
-139 -141 0
-140 -141 0
139 140 141 0
-142 -143 0
-142 -144 0
-143 -144 0
142 143 144 0
-145 -146 0
-145 -147 0
-146 -147 0
145 146 147 0
-148 -149 0
-148 -150 0
-149 -150 0
148 149 150 0
-151 -152 0
-151 -153 0
-152 -153 0
151 152 153 0
-154 -155 0
-154 -156 0
-155 -156 0
154 155 156 0
-157 -158 0
-157 -159 0
-158 -159 0
157 158 159 0
-160 -161 0
-160 -162 0
-161 -162 0
160 161 162 0
-163 -164 0
-163 -165 0
-164 -165 0
163 164 165 0
-166 -167 0
-166 -168 0
-167 -168 0
166 167 168 0
-169 -170 0
-169 -171 0
-170 -171 0
169 170 171 0
-172 -173 0
-172 -174 0
-173 -174 0
172 173 174 0
-175 -176 0
-175 -177 0
-176 -177 0
175 176 177 0
-178 -179 0
-178 -180 0
-179 -180 0
178 179 180 0
-181 -182 0
-181 -183 0
-182 -183 0
181 182 183 0
-184 -185 0
-184 -186 0
-185 -186 0
184 185 186 0
-187 -188 0
-187 -189 0
-188 -189 0
187 188 189 0
-190 -191 0
-190 -192 0
-191 -192 0
190 191 192 0
-193 -194 0
-193 -195 0
-194 -195 0
193 194 195 0
-196 -197 0
-196 -198 0
-197 -198 0
196 197 198 0
-199 -200 0
-199 -201 0
-200 -201 0
199 200 201 0
-202 -203 0
-202 -204 0
-203 -204 0
202 203 204 0
-205 -206 0
-205 -207 0
-206 -207 0
205 206 207 0
-208 -209 0
-208 -210 0
-209 -210 0
208 209 210 0
-211 -212 0
-211 -213 0
-212 -213 0
211 212 213 0
-214 -215 0
-214 -216 0
-215 -216 0
214 215 216 0
-217 -218 0
-217 -219 0
-218 -219 0
217 218 219 0
-220 -221 0
-220 -222 0
-221 -222 0
220 221 222 0
-223 -224 0
-223 -225 0
-224 -225 0
223 224 225 0
-226 -227 0
-226 -228 0
-227 -228 0
226 227 228 0
-229 -230 0
-229 -231 0
-230 -231 0
229 230 231 0
-232 -233 0
-232 -234 0
-233 -234 0
232 233 234 0
-235 -236 0
-235 -237 0
-236 -237 0
235 236 237 0
-238 -239 0
-238 -240 0
-239 -240 0
238 239 240 0
-241 -242 0
-241 -243 0
-242 -243 0
241 242 243 0
-244 -245 0
-244 -246 0
-245 -246 0
244 245 246 0
-247 -248 0
-247 -249 0
-248 -249 0
247 248 249 0
-250 -251 0
-250 -252 0
-251 -252 0
250 251 252 0
-253 -254 0
-253 -255 0
-254 -255 0
253 254 255 0
-256 -257 0
-256 -258 0
-257 -258 0
256 257 258 0
-259 -260 0
-259 -261 0
-260 -261 0
259 260 261 0
-262 -263 0
-262 -264 0
-263 -264 0
262 263 264 0
-265 -266 0
-265 -267 0
-266 -267 0
265 266 267 0
-268 -269 0
-268 -270 0
-269 -270 0
268 269 270 0
-271 -272 0
-271 -273 0
-272 -273 0
271 272 273 0
-274 -275 0
-274 -276 0
-275 -276 0
274 275 276 0
-277 -278 0
-277 -279 0
-278 -279 0
277 278 279 0
-280 -281 0
-280 -282 0
-281 -282 0
280 281 282 0
-283 -284 0
-283 -285 0
-284 -285 0
283 284 285 0
-286 -287 0
-286 -288 0
-287 -288 0
286 287 288 0
-289 -290 0
-289 -291 0
-290 -291 0
289 290 291 0
-292 -293 0
-292 -294 0
-293 -294 0
292 293 294 0
-295 -296 0
-295 -297 0
-296 -297 0
295 296 297 0
-298 -299 0
-298 -300 0
-299 -300 0
298 299 300 0
-301 -302 0
-301 -303 0
-302 -303 0
301 302 303 0
-304 -305 0
-304 -306 0
-305 -306 0
304 305 306 0
-307 -308 0
-307 -309 0
-308 -309 0
307 308 309 0
-310 -311 0
-310 -312 0
-311 -312 0
310 311 312 0
-313 -314 0
-313 -315 0
-314 -315 0
313 314 315 0
-316 -317 0
-316 -318 0
-317 -318 0
316 317 318 0
-319 -320 0
-319 -321 0
-320 -321 0
319 320 321 0
-322 -323 0
-322 -324 0
-323 -324 0
322 323 324 0
-325 -326 0
-325 -327 0
-326 -327 0
325 326 327 0
-328 -329 0
-328 -330 0
-329 -330 0
328 329 330 0
-331 -332 0
-331 -333 0
-332 -333 0
331 332 333 0
-334 -335 0
-334 -336 0
-335 -336 0
334 335 336 0
-337 -338 0
-337 -339 0
-338 -339 0
337 338 339 0
-340 -341 0
-340 -342 0
-341 -342 0
340 341 342 0
-343 -344 0
-343 -345 0
-344 -345 0
343 344 345 0
-346 -347 0
-346 -348 0
-347 -348 0
346 347 348 0
-349 -350 0
-349 -351 0
-350 -351 0
349 350 351 0
-352 -353 0
-352 -354 0
-353 -354 0
352 353 354 0
-355 -356 0
-355 -357 0
-356 -357 0
355 356 357 0
-358 -359 0
-358 -360 0
-359 -360 0
358 359 360 0
-361 -362 0
-361 -363 0
-362 -363 0
361 362 363 0
-364 -365 0
-364 -366 0
-365 -366 0
364 365 366 0
-367 -368 0
-367 -369 0
-368 -369 0
367 368 369 0
-370 -371 0
-370 -372 0
-371 -372 0
370 371 372 0
-373 -374 0
-373 -375 0
-374 -375 0
373 374 375 0
-376 -377 0
-376 -378 0
-377 -378 0
376 377 378 0
-379 -380 0
-379 -381 0
-380 -381 0
379 380 381 0
-382 -383 0
-382 -384 0
-383 -384 0
382 383 384 0
-385 -386 0
-385 -387 0
-386 -387 0
385 386 387 0
-388 -389 0
-388 -390 0
-389 -390 0
388 389 390 0
-391 -392 0
-391 -393 0
-392 -393 0
391 392 393 0
-394 -395 0
-394 -396 0
-395 -396 0
394 395 396 0
-397 -398 0
-397 -399 0
-398 -399 0
397 398 399 0
-400 -401 0
-400 -402 0
-401 -402 0
400 401 402 0
-403 -404 0
-403 -405 0
-404 -405 0
403 404 405 0
-406 -407 0
-406 -408 0
-407 -408 0
406 407 408 0
-409 -410 0
-409 -411 0
-410 -411 0
409 410 411 0
-412 -413 0
-412 -414 0
-413 -414 0
412 413 414 0
-415 -416 0
-415 -417 0
-416 -417 0
415 416 417 0
-418 -419 0
-418 -420 0
-419 -420 0
418 419 420 0
-421 -422 0
-421 -423 0
-422 -423 0
421 422 423 0
-424 -425 0
-424 -426 0
-425 -426 0
424 425 426 0
-427 -428 0
-427 -429 0
-428 -429 0
427 428 429 0
-430 -431 0
-430 -432 0
-431 -432 0
430 431 432 0
-433 -434 0
-433 -435 0
-434 -435 0
433 434 435 0
-436 -437 0
-436 -438 0
-437 -438 0
436 437 438 0
-439 -440 0
-439 -441 0
-440 -441 0
439 440 441 0
-442 -443 0
-442 -444 0
-443 -444 0
442 443 444 0
-445 -446 0
-445 -447 0
-446 -447 0
445 446 447 0
-448 -449 0
-448 -450 0
-449 -450 0
448 449 450 0
-451 -452 0
-451 -453 0
-452 -453 0
451 452 453 0
-454 -455 0
-454 -456 0
-455 -456 0
454 455 456 0
-457 -458 0
-457 -459 0
-458 -459 0
457 458 459 0
-460 -461 0
-460 -462 0
-461 -462 0
460 461 462 0
-463 -464 0
-463 -465 0
-464 -465 0
463 464 465 0
-466 -467 0
-466 -468 0
-467 -468 0
466 467 468 0
-469 -470 0
-469 -471 0
-470 -471 0
469 470 471 0
-472 -473 0
-472 -474 0
-473 -474 0
472 473 474 0
-475 -476 0
-475 -477 0
-476 -477 0
475 476 477 0
-478 -479 0
-478 -480 0
-479 -480 0
478 479 480 0
-481 -482 0
-481 -483 0
-482 -483 0
481 482 483 0
-484 -485 0
-484 -486 0
-485 -486 0
484 485 486 0
-487 -488 0
-487 -489 0
-488 -489 0
487 488 489 0
-490 -491 0
-490 -492 0
-491 -492 0
490 491 492 0
-493 -494 0
-493 -495 0
-494 -495 0
493 494 495 0
-496 -497 0
-496 -498 0
-497 -498 0
496 497 498 0
-499 -500 0
-499 -501 0
-500 -501 0
499 500 501 0
-502 -503 0
-502 -504 0
-503 -504 0
502 503 504 0
-505 -506 0
-505 -507 0
-506 -507 0
505 506 507 0
-508 -509 0
-508 -510 0
-509 -510 0
508 509 510 0
-511 -512 0
-511 -513 0
-512 -513 0
511 512 513 0
-514 -515 0
-514 -516 0
-515 -516 0
514 515 516 0
-517 -518 0
-517 -519 0
-518 -519 0
517 518 519 0
-520 -521 0
-520 -522 0
-521 -522 0
520 521 522 0
-523 -524 0
-523 -525 0
-524 -525 0
523 524 525 0
-25 -1 0
-26 -2 0
-27 -3 0
-82 -1 0
-83 -2 0
-84 -3 0
-148 -1 0
-149 -2 0
-150 -3 0
-151 -1 0
-152 -2 0
-153 -3 0
-190 -1 0
-191 -2 0
-192 -3 0
-388 -1 0
-389 -2 0
-390 -3 0
-460 -1 0
-461 -2 0
-462 -3 0
-13 -4 0
-14 -5 0
-15 -6 0
-61 -4 0
-62 -5 0
-63 -6 0
-118 -4 0
-119 -5 0
-120 -6 0
-253 -4 0
-254 -5 0
-255 -6 0
-280 -4 0
-281 -5 0
-282 -6 0
-394 -4 0
-395 -5 0
-396 -6 0
-403 -4 0
-404 -5 0
-405 -6 0
-514 -4 0
-515 -5 0
-516 -6 0
-49 -7 0
-50 -8 0
-51 -9 0
-109 -7 0
-110 -8 0
-111 -9 0
-265 -7 0
-266 -8 0
-267 -9 0
-289 -7 0
-290 -8 0
-291 -9 0
-349 -7 0
-350 -8 0
-351 -9 0
-61 -10 0
-62 -11 0
-63 -12 0
-148 -10 0
-149 -11 0
-150 -12 0
-292 -10 0
-293 -11 0
-294 -12 0
-301 -10 0
-302 -11 0
-303 -12 0
-412 -10 0
-413 -11 0
-414 -12 0
-493 -10 0
-494 -11 0
-495 -12 0
-520 -10 0
-521 -11 0
-522 -12 0
-91 -13 0
-92 -14 0
-93 -15 0
-205 -13 0
-206 -14 0
-207 -15 0
-208 -13 0
-209 -14 0
-210 -15 0
-325 -13 0
-326 -14 0
-327 -15 0
-436 -13 0
-437 -14 0
-438 -15 0
-466 -13 0
-467 -14 0
-468 -15 0
-58 -16 0
-59 -17 0
-60 -18 0
-406 -16 0
-407 -17 0
-408 -18 0
-523 -16 0
-524 -17 0
-525 -18 0
-517 -19 0
-518 -20 0
-519 -21 0
-61 -22 0
-62 -23 0
-63 -24 0
-97 -22 0
-98 -23 0
-99 -24 0
-124 -22 0
-125 -23 0
-126 -24 0
-379 -22 0
-380 -23 0
-381 -24 0
-442 -22 0
-443 -23 0
-444 -24 0
-52 -25 0
-53 -26 0
-54 -27 0
-106 -25 0
-107 -26 0
-108 -27 0
-118 -25 0
-119 -26 0
-120 -27 0
-202 -25 0
-203 -26 0
-204 -27 0
-331 -25 0
-332 -26 0
-333 -27 0
-367 -25 0
-368 -26 0
-369 -27 0
-451 -25 0
-452 -26 0
-453 -27 0
-73 -28 0
-74 -29 0
-75 -30 0
-106 -28 0
-107 -29 0
-108 -30 0
-208 -28 0
-209 -29 0
-210 -30 0
-421 -28 0
-422 -29 0
-423 -30 0
-460 -28 0
-461 -29 0
-462 -30 0
-361 -31 0
-362 -32 0
-363 -33 0
-448 -31 0
-449 -32 0
-450 -33 0
-478 -31 0
-479 -32 0
-480 -33 0
-208 -34 0
-209 -35 0
-210 -36 0
-346 -34 0
-347 -35 0
-348 -36 0
-364 -34 0
-365 -35 0
-366 -36 0
-406 -34 0
-407 -35 0
-408 -36 0
-460 -34 0
-461 -35 0
-462 -36 0
-295 -37 0
-296 -38 0
-297 -39 0
-427 -37 0
-428 -38 0
-429 -39 0
-385 -40 0
-386 -41 0
-387 -42 0
-424 -40 0
-425 -41 0
-426 -42 0
-514 -40 0
-515 -41 0
-516 -42 0
-151 -43 0
-152 -44 0
-153 -45 0
-466 -43 0
-467 -44 0
-468 -45 0
-130 -46 0
-131 -47 0
-132 -48 0
-211 -46 0
-212 -47 0
-213 -48 0
-415 -46 0
-416 -47 0
-417 -48 0
-145 -49 0
-146 -50 0
-147 -51 0
-229 -49 0
-230 -50 0
-231 -51 0
-232 -49 0
-233 -50 0
-234 -51 0
-235 -49 0
-236 -50 0
-237 -51 0
-454 -49 0
-455 -50 0
-456 -51 0
-100 -52 0
-101 -53 0
-102 -54 0
-172 -52 0
-173 -53 0
-174 -54 0
-220 -52 0
-221 -53 0
-222 -54 0
-340 -52 0
-341 -53 0
-342 -54 0
-400 -52 0
-401 -53 0
-402 -54 0
-424 -52 0
-425 -53 0
-426 -54 0
-67 -55 0
-68 -56 0
-69 -57 0
-496 -55 0
-497 -56 0
-498 -57 0
-427 -58 0
-428 -59 0
-429 -60 0
-469 -58 0
-470 -59 0
-471 -60 0
-103 -64 0
-104 -65 0
-105 -66 0
-235 -64 0
-236 -65 0
-237 -66 0
-346 -64 0
-347 -65 0
-348 -66 0
-502 -64 0
-503 -65 0
-504 -66 0
-106 -67 0
-107 -68 0
-108 -69 0
-283 -67 0
-284 -68 0
-285 -69 0
-298 -67 0
-299 -68 0
-300 -69 0
-361 -67 0
-362 -68 0
-363 -69 0
-463 -67 0
-464 -68 0
-465 -69 0
-76 -70 0
-77 -71 0
-78 -72 0
-136 -70 0
-137 -71 0
-138 -72 0
-169 -70 0
-170 -71 0
-171 -72 0
-211 -70 0
-212 -71 0
-213 -72 0
-277 -70 0
-278 -71 0
-279 -72 0
-406 -70 0
-407 -71 0
-408 -72 0
-430 -70 0
-431 -71 0
-432 -72 0
-235 -73 0
-236 -74 0
-237 -75 0
-253 -73 0
-254 -74 0
-255 -75 0
-247 -76 0
-248 -77 0
-249 -78 0
-298 -76 0
-299 -77 0
-300 -78 0
-418 -76 0
-419 -77 0
-420 -78 0
-463 -76 0
-464 -77 0
-465 -78 0
-517 -76 0
-518 -77 0
-519 -78 0
-124 -79 0
-125 -80 0
-126 -81 0
-355 -79 0
-356 -80 0
-357 -81 0
-451 -79 0
-452 -80 0
-453 -81 0
-481 -79 0
-482 -80 0
-483 -81 0
-235 -82 0
-236 -83 0
-237 -84 0
-298 -82 0
-299 -83 0
-300 -84 0
-385 -82 0
-386 -83 0
-387 -84 0
-466 -82 0
-467 -83 0
-468 -84 0
-88 -85 0
-89 -86 0
-90 -87 0
-91 -85 0
-92 -86 0
-93 -87 0
-127 -85 0
-128 -86 0
-129 -87 0
-190 -85 0
-191 -86 0
-192 -87 0
-271 -85 0
-272 -86 0
-273 -87 0
-427 -85 0
-428 -86 0
-429 -87 0
-490 -85 0
-491 -86 0
-492 -87 0
-517 -85 0
-518 -86 0
-519 -87 0
-118 -88 0
-119 -89 0
-120 -90 0
-133 -88 0
-134 -89 0
-135 -90 0
-478 -88 0
-479 -89 0
-480 -90 0
-277 -91 0
-278 -92 0
-279 -93 0
-382 -91 0
-383 -92 0
-384 -93 0
-496 -91 0
-497 -92 0
-498 -93 0
-505 -91 0
-506 -92 0
-507 -93 0
-139 -94 0
-140 -95 0
-141 -96 0
-166 -94 0
-167 -95 0
-168 -96 0
-250 -94 0
-251 -95 0
-252 -96 0
-271 -94 0
-272 -95 0
-273 -96 0
-322 -94 0
-323 -95 0
-324 -96 0
-370 -94 0
-371 -95 0
-372 -96 0
-502 -94 0
-503 -95 0
-504 -96 0
-142 -97 0
-143 -98 0
-144 -99 0
-220 -97 0
-221 -98 0
-222 -99 0
-433 -97 0
-434 -98 0
-435 -99 0
-448 -97 0
-449 -98 0
-450 -99 0
-217 -100 0
-218 -101 0
-219 -102 0
-226 -100 0
-227 -101 0
-228 -102 0
-436 -100 0
-437 -101 0
-438 -102 0
-136 -103 0
-137 -104 0
-138 -105 0
-307 -103 0
-308 -104 0
-309 -105 0
-403 -103 0
-404 -104 0
-405 -105 0
-457 -103 0
-458 -104 0
-459 -105 0
-277 -106 0
-278 -107 0
-279 -108 0
-298 -106 0
-299 -107 0
-300 -108 0
-478 -106 0
-479 -107 0
-480 -108 0
-157 -109 0
-158 -110 0
-159 -111 0
-223 -109 0
-224 -110 0
-225 -111 0
-304 -109 0
-305 -110 0
-306 -111 0
-523 -109 0
-524 -110 0
-525 -111 0
-115 -112 0
-116 -113 0
-117 -114 0
-145 -112 0
-146 -113 0
-147 -114 0
-304 -112 0
-305 -113 0
-306 -114 0
-310 -112 0
-311 -113 0
-312 -114 0
-466 -112 0
-467 -113 0
-468 -114 0
-127 -115 0
-128 -116 0
-129 -117 0
-235 -115 0
-236 -116 0
-237 -117 0
-256 -115 0
-257 -116 0
-258 -117 0
-514 -115 0
-515 -116 0
-516 -117 0
-148 -118 0
-149 -119 0
-150 -120 0
-373 -118 0
-374 -119 0
-375 -120 0
-391 -118 0
-392 -119 0
-393 -120 0
-445 -118 0
-446 -119 0
-447 -120 0
-253 -121 0
-254 -122 0
-255 -123 0
-304 -121 0
-305 -122 0
-306 -123 0
-385 -121 0
-386 -122 0
-387 -123 0
-403 -121 0
-404 -122 0
-405 -123 0
-160 -124 0
-161 -125 0
-162 -126 0
-169 -127 0
-170 -128 0
-171 -129 0
-172 -127 0
-173 -128 0
-174 -129 0
-187 -127 0
-188 -128 0
-189 -129 0
-280 -127 0
-281 -128 0
-282 -129 0
-499 -127 0
-500 -128 0
-501 -129 0
-277 -130 0
-278 -131 0
-279 -132 0
-346 -130 0
-347 -131 0
-348 -132 0
-358 -130 0
-359 -131 0
-360 -132 0
-304 -133 0
-305 -134 0
-306 -135 0
-337 -133 0
-338 -134 0
-339 -135 0
-403 -133 0
-404 -134 0
-405 -135 0
-484 -133 0
-485 -134 0
-486 -135 0
-184 -136 0
-185 -137 0
-186 -138 0
-262 -136 0
-263 -137 0
-264 -138 0
-313 -136 0
-314 -137 0
-315 -138 0
-469 -136 0
-470 -137 0
-471 -138 0
-256 -139 0
-257 -140 0
-258 -141 0
-496 -139 0
-497 -140 0
-498 -141 0
-244 -142 0
-245 -143 0
-246 -144 0
-274 -142 0
-275 -143 0
-276 -144 0
-427 -142 0
-428 -143 0
-429 -144 0
-490 -142 0
-491 -143 0
-492 -144 0
-253 -145 0
-254 -146 0
-255 -147 0
-265 -145 0
-266 -146 0
-267 -147 0
-517 -145 0
-518 -146 0
-519 -147 0
-196 -148 0
-197 -149 0
-198 -150 0
-226 -151 0
-227 -152 0
-228 -153 0
-394 -151 0
-395 -152 0
-396 -153 0
-481 -151 0
-482 -152 0
-483 -153 0
-523 -151 0
-524 -152 0
-525 -153 0
-172 -154 0
-173 -155 0
-174 -156 0
-181 -154 0
-182 -155 0
-183 -156 0
-211 -154 0
-212 -155 0
-213 -156 0
-436 -154 0
-437 -155 0
-438 -156 0
-172 -157 0
-173 -158 0
-174 -159 0
-202 -157 0
-203 -158 0
-204 -159 0
-412 -157 0
-413 -158 0
-414 -159 0
-346 -160 0
-347 -161 0
-348 -162 0
-397 -160 0
-398 -161 0
-399 -162 0
-463 -160 0
-464 -161 0
-465 -162 0
-514 -160 0
-515 -161 0
-516 -162 0
-517 -160 0
-518 -161 0
-519 -162 0
-193 -163 0
-194 -164 0
-195 -165 0
-199 -163 0
-200 -164 0
-201 -165 0
-214 -163 0
-215 -164 0
-216 -165 0
-421 -163 0
-422 -164 0
-423 -165 0
-433 -163 0
-434 -164 0
-435 -165 0
-451 -166 0
-452 -167 0
-453 -168 0
-181 -169 0
-182 -170 0
-183 -171 0
-202 -169 0
-203 -170 0
-204 -171 0
-301 -169 0
-302 -170 0
-303 -171 0
-322 -169 0
-323 -170 0
-324 -171 0
-493 -169 0
-494 -170 0
-495 -171 0
-511 -169 0
-512 -170 0
-513 -171 0
-283 -172 0
-284 -173 0
-285 -174 0
-190 -175 0
-191 -176 0
-192 -177 0
-247 -175 0
-248 -176 0
-249 -177 0
-379 -175 0
-380 -176 0
-381 -177 0
-385 -175 0
-386 -176 0
-387 -177 0
-427 -175 0
-428 -176 0
-429 -177 0
-496 -175 0
-497 -176 0
-498 -177 0
-337 -178 0
-338 -179 0
-339 -180 0
-334 -181 0
-335 -182 0
-336 -183 0
-397 -181 0
-398 -182 0
-399 -183 0
-427 -181 0
-428 -182 0
-429 -183 0
-469 -181 0
-470 -182 0
-471 -183 0
-196 -184 0
-197 -185 0
-198 -186 0
-223 -184 0
-224 -185 0
-225 -186 0
-262 -184 0
-263 -185 0
-264 -186 0
-202 -187 0
-203 -188 0
-204 -189 0
-229 -187 0
-230 -188 0
-231 -189 0
-235 -187 0
-236 -188 0
-237 -189 0
-292 -193 0
-293 -194 0
-294 -195 0
-397 -193 0
-398 -194 0
-399 -195 0
-454 -193 0
-455 -194 0
-456 -195 0
-241 -196 0
-242 -197 0
-243 -198 0
-214 -199 0
-215 -200 0
-216 -201 0
-391 -202 0
-392 -203 0
-393 -204 0
-415 -202 0
-416 -203 0
-417 -204 0
-514 -202 0
-515 -203 0
-516 -204 0
-208 -205 0
-209 -206 0
-210 -207 0
-295 -205 0
-296 -206 0
-297 -207 0
-355 -205 0
-356 -206 0
-357 -207 0
-424 -205 0
-425 -206 0
-426 -207 0
-496 -208 0
-497 -209 0
-498 -210 0
-511 -208 0
-512 -209 0
-513 -210 0
-310 -211 0
-311 -212 0
-312 -213 0
-343 -211 0
-344 -212 0
-345 -213 0
-493 -211 0
-494 -212 0
-495 -213 0
-520 -211 0
-521 -212 0
-522 -213 0
-226 -214 0
-227 -215 0
-228 -216 0
-313 -214 0
-314 -215 0
-315 -216 0
-370 -214 0
-371 -215 0
-372 -216 0
-451 -214 0
-452 -215 0
-453 -216 0
-307 -217 0
-308 -218 0
-309 -219 0
-304 -220 0
-305 -221 0
-306 -222 0
-349 -220 0
-350 -221 0
-351 -222 0
-427 -220 0
-428 -221 0
-429 -222 0
-271 -223 0
-272 -224 0
-273 -225 0
-289 -223 0
-290 -224 0
-291 -225 0
-295 -223 0
-296 -224 0
-297 -225 0
-505 -223 0
-506 -224 0
-507 -225 0
-394 -226 0
-395 -227 0
-396 -228 0
-310 -229 0
-311 -230 0
-312 -231 0
-463 -229 0
-464 -230 0
-465 -231 0
-487 -229 0
-488 -230 0
-489 -231 0
-505 -229 0
-506 -230 0
-507 -231 0
-241 -232 0
-242 -233 0
-243 -234 0
-253 -232 0
-254 -233 0
-255 -234 0
-292 -232 0
-293 -233 0
-294 -234 0
-364 -232 0
-365 -233 0
-366 -234 0
-457 -232 0
-458 -233 0
-459 -234 0
-472 -232 0
-473 -233 0
-474 -234 0
-421 -235 0
-422 -236 0
-423 -237 0
-481 -235 0
-482 -236 0
-483 -237 0
-289 -238 0
-290 -239 0
-291 -240 0
-310 -238 0
-311 -239 0
-312 -240 0
-361 -238 0
-362 -239 0
-363 -240 0
-418 -238 0
-419 -239 0
-420 -240 0
-451 -238 0
-452 -239 0
-453 -240 0
-442 -241 0
-443 -242 0
-444 -243 0
-364 -244 0
-365 -245 0
-366 -246 0
-319 -247 0
-320 -248 0
-321 -249 0
-382 -247 0
-383 -248 0
-384 -249 0
-412 -247 0
-413 -248 0
-414 -249 0
-517 -247 0
-518 -248 0
-519 -249 0
-280 -250 0
-281 -251 0
-282 -252 0
-292 -250 0
-293 -251 0
-294 -252 0
-331 -250 0
-332 -251 0
-333 -252 0
-301 -253 0
-302 -254 0
-303 -255 0
-400 -253 0
-401 -254 0
-402 -255 0
-328 -256 0
-329 -257 0
-330 -258 0
-400 -256 0
-401 -257 0
-402 -258 0
-331 -259 0
-332 -260 0
-333 -261 0
-421 -259 0
-422 -260 0
-423 -261 0
-502 -259 0
-503 -260 0
-504 -261 0
-523 -259 0
-524 -260 0
-525 -261 0
-268 -262 0
-269 -263 0
-270 -264 0
-286 -262 0
-287 -263 0
-288 -264 0
-319 -262 0
-320 -263 0
-321 -264 0
-505 -262 0
-506 -263 0
-507 -264 0
-328 -265 0
-329 -266 0
-330 -267 0
-496 -265 0
-497 -266 0
-498 -267 0
-301 -268 0
-302 -269 0
-303 -270 0
-448 -268 0
-449 -269 0
-450 -270 0
-301 -271 0
-302 -272 0
-303 -273 0
-394 -271 0
-395 -272 0
-396 -273 0
-382 -274 0
-383 -275 0
-384 -276 0
-430 -277 0
-431 -278 0
-432 -279 0
-337 -280 0
-338 -281 0
-339 -282 0
-514 -280 0
-515 -281 0
-516 -282 0
-340 -283 0
-341 -284 0
-342 -285 0
-352 -283 0
-353 -284 0
-354 -285 0
-487 -283 0
-488 -284 0
-489 -285 0
-301 -286 0
-302 -287 0
-303 -288 0
-370 -286 0
-371 -287 0
-372 -288 0
-352 -289 0
-353 -290 0
-354 -291 0
-391 -289 0
-392 -290 0
-393 -291 0
-433 -289 0
-434 -290 0
-435 -291 0
-325 -292 0
-326 -293 0
-327 -294 0
-334 -295 0
-335 -296 0
-336 -297 0
-349 -295 0
-350 -296 0
-351 -297 0
-382 -298 0
-383 -299 0
-384 -300 0
-445 -298 0
-446 -299 0
-447 -300 0
-511 -298 0
-512 -299 0
-513 -300 0
-487 -301 0
-488 -302 0
-489 -303 0
-337 -304 0
-338 -305 0
-339 -306 0
-361 -304 0
-362 -305 0
-363 -306 0
-487 -304 0
-488 -305 0
-489 -306 0
-427 -307 0
-428 -308 0
-429 -309 0
-490 -310 0
-491 -311 0
-492 -312 0
-364 -313 0
-365 -314 0
-366 -315 0
-397 -313 0
-398 -314 0
-399 -315 0
-496 -313 0
-497 -314 0
-498 -315 0
-361 -316 0
-362 -317 0
-363 -318 0
-373 -316 0
-374 -317 0
-375 -318 0
-385 -319 0
-386 -320 0
-387 -321 0
-433 -319 0
-434 -320 0
-435 -321 0
-403 -322 0
-404 -323 0
-405 -324 0
-406 -322 0
-407 -323 0
-408 -324 0
-409 -322 0
-410 -323 0
-411 -324 0
-490 -322 0
-491 -323 0
-492 -324 0
-349 -325 0
-350 -326 0
-351 -327 0
-463 -325 0
-464 -326 0
-465 -327 0
-331 -328 0
-332 -329 0
-333 -330 0
-337 -328 0
-338 -329 0
-339 -330 0
-406 -328 0
-407 -329 0
-408 -330 0
-472 -331 0
-473 -332 0
-474 -333 0
-376 -334 0
-377 -335 0
-378 -336 0
-373 -340 0
-374 -341 0
-375 -342 0
-388 -343 0
-389 -344 0
-390 -345 0
-445 -343 0
-446 -344 0
-447 -345 0
-472 -343 0
-473 -344 0
-474 -345 0
-385 -346 0
-386 -347 0
-387 -348 0
-433 -346 0
-434 -347 0
-435 -348 0
-382 -349 0
-383 -350 0
-384 -351 0
-433 -352 0
-434 -353 0
-435 -354 0
-481 -352 0
-482 -353 0
-483 -354 0
-517 -352 0
-518 -353 0
-519 -354 0
-379 -355 0
-380 -356 0
-381 -357 0
-475 -355 0
-476 -356 0
-477 -357 0
-490 -355 0
-491 -356 0
-492 -357 0
-379 -358 0
-380 -359 0
-381 -360 0
-472 -361 0
-473 -362 0
-474 -363 0
-373 -364 0
-374 -365 0
-375 -366 0
-418 -364 0
-419 -365 0
-420 -366 0
-418 -370 0
-419 -371 0
-420 -372 0
-442 -370 0
-443 -371 0
-444 -372 0
-397 -376 0
-398 -377 0
-399 -378 0
-457 -379 0
-458 -380 0
-459 -381 0
-517 -379 0
-518 -380 0
-519 -381 0
-457 -385 0
-458 -386 0
-459 -387 0
-391 -388 0
-392 -389 0
-393 -390 0
-460 -388 0
-461 -389 0
-462 -390 0
-400 -391 0
-401 -392 0
-402 -393 0
-409 -394 0
-410 -395 0
-411 -396 0
-403 -397 0
-404 -398 0
-405 -399 0
-508 -400 0
-509 -401 0
-510 -402 0
-415 -406 0
-416 -407 0
-417 -408 0
-457 -406 0
-458 -407 0
-459 -408 0
-523 -412 0
-524 -413 0
-525 -414 0
-448 -415 0
-449 -416 0
-450 -417 0
-499 -418 0
-500 -419 0
-501 -420 0
-451 -421 0
-452 -422 0
-453 -423 0
-472 -421 0
-473 -422 0
-474 -423 0
-490 -421 0
-491 -422 0
-492 -423 0
-523 -421 0
-524 -422 0
-525 -423 0
-463 -430 0
-464 -431 0
-465 -432 0
-505 -433 0
-506 -434 0
-507 -435 0
-511 -433 0
-512 -434 0
-513 -435 0
-460 -436 0
-461 -437 0
-462 -438 0
-469 -436 0
-470 -437 0
-471 -438 0
-475 -439 0
-476 -440 0
-477 -441 0
-454 -442 0
-455 -443 0
-456 -444 0
-466 -451 0
-467 -452 0
-468 -453 0
-484 -454 0
-485 -455 0
-486 -456 0
-505 -469 0
-506 -470 0
-507 -471 0
-496 -490 0
-497 -491 0
-498 -492 0
-508 -493 0
-509 -494 0
-510 -495 0
-520 -502 0
-521 -503 0
-522 -504 0
-523 -508 0
-524 -509 0
-525 -510 0
